# debug data for forest model - mnr April 09
# modified ty DLW, 13 April 09
# modified by MNR, April 18, 2009
# modified by MNR, May 1, 2009
#
# Notes: the paper specifies a total of about 300 hectares
#        and it seems that a reasonable yield
#        for cutting a track is about 100 to 200 m3/hectare
#        hence, something seems off: some demand profiles
#        need over 100000 m3 over the four year horizon.
#        Since 300 hectares seems very small, I am assuming
#        it is really 3000 (note: 1 hectare is about 2.5 acres)
#
#        the following calculations are based on
#        an assumption of $50/m3 and 100m3/hectare:
#        (hence, the revenue it about $5000/hectare)
#        so set harvest cost at $1500/hectare
#        Set production cost at $15/m3
#        Set transport costs at $10, $15, or $20 per m3 per arc.
#
#        I suppose there might be about 10000 m3 on an arc
#        so I figure we should use an average cost of $20k
#        for an arc. This should vary a lot and I may be 
#        way off. Let's see what happens.
#
#        To make it interesting, some arcs should have capacities
#        maybe as low as 10000m3 (or 15k or something like that)

####################################################################
#       May 1, 2009: Mehul changed the parameter names to match the 
#	  ones in the paper.  
####################################################################

#
# Implementation Sets (not in paper, used to make it happen)
#
# general nodes (not in paper)
set Nodes := Exit1
            Intersection1 Intersection2 Intersection3
            Origin1 Origin2 Origin3 Origin4 Origin5 Origin6 Origin7 Origin8 Origin9;

# following the notation in the paper (note: nodes \equiv origins)

#
# Sets
#

set Times := Ano1 Ano2 Ano3 Ano4;

set OriginNodes := Origin1 Origin2 Origin3 Origin4 Origin5 Origin6 Origin7 Origin8 Origin9;

set IntersectionNodes := Intersection1 Intersection2 Intersection3;

set ExitNodes := Exit1;

set HarvestCells := TrackOne TrackTwo TrackThree TrackFour TrackFive TrackSix TrackSeven TrackEight TrackNine
                    TrackTen TrackEleven TrackTwelve TrackThirteen TrackFourteen TrackFifteen TrackSixteen TrackSeventeen
                    TrackEighteen TrackNineteen TrackTwenty TrackTwentyOne TrackTwentyTwo TrackTwentyThree TrackTwentyFour
                    TrackTwentyFive ;

set HCellsForOrigin[Origin1] := TrackOne TrackTwo TrackSix ;
set HCellsForOrigin[Origin2] := TrackSeven TrackEleven TrackTwelve ;
set HCellsForOrigin[Origin3] := TrackThree TrackFour TrackEight ;
set HCellsForOrigin[Origin4] := TrackFive TrackNine TrackTen ;
set HCellsForOrigin[Origin5] := TrackThirteen TrackFourteen TrackSeventeen ;
set HCellsForOrigin[Origin6] := TrackSixteen TrackTwentyOne ;
set HCellsForOrigin[Origin7] := TrackTwenty TrackTwentyFour TrackTwentyFive ;
set HCellsForOrigin[Origin8] := TrackTwentyTwo TrackTwentyThree ;
set HCellsForOrigin[Origin9] := TrackFifteen TrackEighteen TrackNineteen ;

# we need to find out how to do a union, but meanwhile...
set AllRoads := Org2Int3E 
                	Int3Exit1E 
                	Int1Int2E Int2Exit1E
			Org5Exit1E Org7Int2E 
			Org6Exit1P Org2Exit1P
			Org1Org2P Org1Org3P
			Int1Int3P Org3Int1P
			Org4Int1P Org4Org9P 
			Org9Int2P Org8Exit1P
			Org7Exit1P Int1Org5P 
			Org1Int3P Int1Exit1P ;

# HEY! our implementation is NOT nodes cross nodes; 
# we let the in and out sets define where roads go

# existing roads
set ExistingRoads := Org2Int3E 
                	Int3Exit1E 
                	Int1Int2E Int2Exit1E
			Org5Exit1E Org7Int2E ;

# potential roads
set PotentialRoads := Org6Exit1P Org2Exit1P
			Org1Org2P Org1Org3P
			Int1Int3P Org3Int1P
			Org4Int1P Org4Org9P 
			Org9Int2P Org8Exit1P
			Org7Exit1P Int1Org5P 
			Org1Int3P Int1Exit1P ;

# implementation stuff
set ArcsIn[Origin1] := ;
set ArcsIn[Origin2] := Org1Org2P ;
set ArcsIn[Origin3] := Org1Org3P ;
set ArcsIn[Origin4] := ;
set ArcsIn[Origin5] := Int1Org5P ;
set ArcsIn[Origin6] := ;
set ArcsIn[Origin7] := ;
set ArcsIn[Origin8] := ;
set ArcsIn[Origin9] := Org4Org9P ;

set ArcsIn[Exit1] := Int3Exit1E Int2Exit1E Org5Exit1E Org6Exit1P Org2Exit1P Org8Exit1P Org7Exit1P Int1Exit1P ;

set ArcsIn[Intersection1] := Org3Int1P Org4Int1P ;
set ArcsIn[Intersection2] := Int1Int2E Org7Int2E Org9Int2P ;
set ArcsIn[Intersection3] := Org2Int3E Int1Int3P Org1Int3P ;

set ArcsOut[Origin1] := Org1Org2P Org1Int3P Org1Org3P ; 
set ArcsOut[Origin2] := Org2Int3E Org2Exit1P ;
set ArcsOut[Origin3] := Org3Int1P ;
set ArcsOut[Origin4] := Org4Int1P Org4Org9P ;
set ArcsOut[Origin5] := Org5Exit1E ;
set ArcsOut[Origin6] := Org6Exit1P ;
set ArcsOut[Origin7] := Org7Exit1P Org7Int2E ;
set ArcsOut[Origin8] := Org8Exit1P ;
set ArcsOut[Origin9] := Org9Int2P ;

set ArcsOut[Exit1] :=  ;

set ArcsOut[Intersection1] := Int1Int2E Int1Int3P Int1Org5P Int1Exit1P ;
set ArcsOut[Intersection2] := Int2Exit1E ;
set ArcsOut[Intersection3] := Int3Exit1E ;

#
# Deterministic Parameters
#

# productivity of cell h if it is harvested in period t
param a := 
TrackOne	Ano1	150
TrackOne	Ano2	163
TrackOne	Ano3	169
TrackOne	Ano4	177
TrackTwo	Ano1	150
TrackTwo	Ano2	164
TrackTwo	Ano3	177
TrackTwo	Ano4	187
TrackThree	Ano1	150
TrackThree	Ano2	159
TrackThree	Ano3	163
TrackThree	Ano4	173
TrackFour	Ano1	150
TrackFour	Ano2	151
TrackFour	Ano3	165
TrackFour	Ano4	177
TrackFive	Ano1	125
TrackFive	Ano2	139
TrackFive	Ano3	140
TrackFive	Ano4	143
TrackSix	Ano1	125
TrackSix	Ano2	129
TrackSix	Ano3	136
TrackSix	Ano4	139
TrackSeven	Ano1	200
TrackSeven	Ano2	208
TrackSeven	Ano3	222
TrackSeven	Ano4	224
TrackEight	Ano1	100
TrackEight	Ano2	101
TrackEight	Ano3	112
TrackEight	Ano4	112
TrackNine	Ano1	150
TrackNine	Ano2	154
TrackNine	Ano3	155
TrackNine	Ano4	169
TrackTen	Ano1	125
TrackTen	Ano2	138
TrackTen	Ano3	148
TrackTen	Ano4	162
TrackEleven	Ano1	165
TrackEleven	Ano2	179
TrackEleven	Ano3	185
TrackEleven	Ano4	188
TrackTwelve	Ano1	100
TrackTwelve	Ano2	104
TrackTwelve	Ano3	109
TrackTwelve	Ano4	117
TrackThirteen	Ano1	285
TrackThirteen	Ano2	295
TrackThirteen	Ano3	305
TrackThirteen	Ano4	319
TrackFourteen	Ano1	150
TrackFourteen	Ano2	157
TrackFourteen	Ano3	163
TrackFourteen	Ano4	164
TrackFifteen	Ano1	125
TrackFifteen	Ano2	126
TrackFifteen	Ano3	134
TrackFifteen	Ano4	135
TrackSixteen	Ano1	165
TrackSixteen	Ano2	166
TrackSixteen	Ano3	173
TrackSixteen	Ano4	178
TrackSeventeen	Ano1	125
TrackSeventeen	Ano2	134
TrackSeventeen	Ano3	138
TrackSeventeen	Ano4	143
TrackEighteen	Ano1	165
TrackEighteen	Ano2	170
TrackEighteen	Ano3	182
TrackEighteen	Ano4	183
TrackNineteen	Ano1	150
TrackNineteen	Ano2	164
TrackNineteen	Ano3	175
TrackNineteen	Ano4	184
TrackTwenty	Ano1	200
TrackTwenty	Ano2	202
TrackTwenty	Ano3	212
TrackTwenty	Ano4	218
TrackTwentyOne	Ano1	125
TrackTwentyOne	Ano2	136
TrackTwentyOne	Ano3	149
TrackTwentyOne	Ano4	150
TrackTwentyTwo	Ano1	125
TrackTwentyTwo	Ano2	129
TrackTwentyTwo	Ano3	129
TrackTwentyTwo	Ano4	132
TrackTwentyThree	Ano1	200
TrackTwentyThree	Ano2	200
TrackTwentyThree	Ano3	210
TrackTwentyThree	Ano4	210
TrackTwentyFour	Ano1	250
TrackTwentyFour	Ano2	256
TrackTwentyFour	Ano3	261
TrackTwentyFour	Ano4	265
TrackTwentyFive	Ano1	125
TrackTwentyFive	Ano2	129
TrackTwentyFive	Ano3	141
TrackTwentyFive	Ano4	147 ;

# Area of cell h to be harvested
param A := TrackOne 110 
                    TrackTwo 100
                    TrackThree 100 
                    TrackFour 100 
                    TrackFive 140
                    TrackSix 150
                    TrackSeven 90
                    TrackEight 180
                    TrackNine 110
                    TrackTen 150
                    TrackEleven 120
                    TrackTwelve 180
                    TrackThirteen 70
                    TrackFourteen 100
                    TrackFifteen 150
                    TrackSixteen 120
                    TrackSeventeen 140
                    TrackEighteen 120
                    TrackNineteen 100
                    TrackTwenty 90
                    TrackTwentyOne 150
                    TrackTwentyTwo 150
                    TrackTwentyThree 90
                    TrackTwentyFour 80
                    TrackTwentyFive 150 ;

# flow capacity on arc (k,l) at time t
param U := Org1Org2P	Ano1	15000
Org1Org2P	Ano2	16400
Org1Org2P	Ano3	17700
Org1Org2P	Ano4	18700
Org1Int3P	Ano1	18750
Org1Int3P	Ano2	19350
Org1Int3P	Ano3	20400
Org1Int3P	Ano4	20850
Org1Org3P	Ano1	18750
Org1Org3P	Ano2	19350
Org1Org3P	Ano3	20400
Org1Org3P	Ano4	20850
Org2Int3E 	Ano1	18000
Org2Int3E 	Ano2	18720
Org2Int3E 	Ano3	19620
Org2Int3E 	Ano4	20160
Org2Exit1P	Ano1	19800
Org2Exit1P	Ano2	21480
Org2Exit1P	Ano3	22200
Org2Exit1P	Ano4	22560
Org3Int1P	Ano1	15000
Org3Int1P	Ano2	15100
Org3Int1P	Ano3	16300
Org3Int1P	Ano4	17300
Org4Org9P	Ano1	18750
Org4Org9P	Ano2	20700
Org4Org9P	Ano3	22200
Org4Org9P	Ano4	24300
Org4Int1P	Ano1	17583
Org4Int1P	Ano2	19033
Org4Int1P	Ano3	19617
Org4Int1P	Ano4	20970
Org5Exit1E	Ano1	15000
Org5Exit1E	Ano2	15700
Org5Exit1E	Ano3	16300
Org5Exit1E	Ano4	16400
Org6Exit1P	Ano1	19800
Org6Exit1P	Ano2	20400
Org6Exit1P	Ano3	22350
Org6Exit1P	Ano4	22500
Org7Exit1P	Ano1	20000
Org7Exit1P	Ano2	20480
Org7Exit1P	Ano3	21150
Org7Exit1P	Ano4	22050
Org7Int2E	Ano1	18000
Org7Int2E	Ano2	18180
Org7Int2E	Ano3	19080
Org7Int2E	Ano4	19620
Org8Exit1P	Ano1	18750
Org8Exit1P	Ano2	19350
Org8Exit1P	Ano3	19350
Org8Exit1P	Ano4	19800
Org9Int2P	Ano1	19800
Org9Int2P	Ano2	20400
Org9Int2P	Ano3	21840
Org9Int2P	Ano4	21960
Int1Org5P	Ano1	17583
Int1Org5P	Ano2	19033
Int1Org5P	Ano3	19617
Int1Org5P	Ano4	20970
Int1Exit1P	Ano1	17583
Int1Exit1P	Ano2	19033
Int1Exit1P	Ano3	19617
Int1Exit1P	Ano4	20970
Int1Int3P	Ano1	17583
Int1Int3P	Ano2	19033
Int1Int3P	Ano3	19617
Int1Int3P	Ano4	20970
Int1Int2E	Ano1	15000
Int1Int2E	Ano2	15100
Int1Int2E	Ano3	16300
Int1Int2E	Ano4	17300
Int2Exit1E	Ano1	15000
Int2Exit1E	Ano2	15100
Int2Exit1E	Ano3	16300
Int2Exit1E	Ano4	17300
Int3Exit1E 	Ano1	17583
Int3Exit1E 	Ano2	18720
Int3Exit1E 	Ano3	19617
Int3Exit1E 	Ano4	20160 ;

# harvesting cost of one hectare of cell h in time t
param P := TrackOne	Ano1	1500
TrackOne	Ano2	1364
TrackOne	Ano3	1240
TrackOne	Ano4	1127
TrackTwo	Ano1	1750
TrackTwo	Ano2	1591
TrackTwo	Ano3	1446
TrackTwo	Ano4	1315
TrackThree	Ano1	1500
TrackThree	Ano2	1364
TrackThree	Ano3	1240
TrackThree	Ano4	1127
TrackFour	Ano1	1500
TrackFour	Ano2	1364
TrackFour	Ano3	1240
TrackFour	Ano4	1127
TrackFive	Ano1	2125
TrackFive	Ano2	1932
TrackFive	Ano3	1756
TrackFive	Ano4	1597
TrackSix	Ano1	2500
TrackSix	Ano2	2273
TrackSix	Ano3	2066
TrackSix	Ano4	1878
TrackSeven	Ano1	2125
TrackSeven	Ano2	1932
TrackSeven	Ano3	1756
TrackSeven	Ano4	1597
TrackEight	Ano1	2450
TrackEight	Ano2	2227
TrackEight	Ano3	2025
TrackEight	Ano4	1841
TrackNine	Ano1	1875
TrackNine	Ano2	1705
TrackNine	Ano3	1550
TrackNine	Ano4	1409
TrackTen	Ano1	2500
TrackTen	Ano2	2273
TrackTen	Ano3	2066
TrackTen	Ano4	1878
TrackEleven	Ano1	1750
TrackEleven	Ano2	1591
TrackEleven	Ano3	1446
TrackEleven	Ano4	1315
TrackTwelve	Ano1	2000
TrackTwelve	Ano2	1818
TrackTwelve	Ano3	1653
TrackTwelve	Ano4	1503
TrackThirteen	Ano1	1250
TrackThirteen	Ano2	1136
TrackThirteen	Ano3	1033
TrackThirteen	Ano4	939
TrackFourteen	Ano1	1625
TrackFourteen	Ano2	1477
TrackFourteen	Ano3	1343
TrackFourteen	Ano4	1221
TrackFifteen	Ano1	2250
TrackFifteen	Ano2	2045
TrackFifteen	Ano3	1860
TrackFifteen	Ano4	1690
TrackSixteen	Ano1	2200
TrackSixteen	Ano2	2000
TrackSixteen	Ano3	1818
TrackSixteen	Ano4	1653
TrackSeventeen	Ano1	1950
TrackSeventeen	Ano2	1773
TrackSeventeen	Ano3	1612
TrackSeventeen	Ano4	1465
TrackEighteen	Ano1	1250
TrackEighteen	Ano2	1136
TrackEighteen	Ano3	1033
TrackEighteen	Ano4	939
TrackNineteen	Ano1	500
TrackNineteen	Ano2	455
TrackNineteen	Ano3	413
TrackNineteen	Ano4	376
TrackTwenty	Ano1	625
TrackTwenty	Ano2	568
TrackTwenty	Ano3	517
TrackTwenty	Ano4	470
TrackTwentyOne	Ano1	1250
TrackTwentyOne	Ano2	1136
TrackTwentyOne	Ano3	1033
TrackTwentyOne	Ano4	939
TrackTwentyTwo	Ano1	1000
TrackTwentyTwo	Ano2	909
TrackTwentyTwo	Ano3	826
TrackTwentyTwo	Ano4	751
TrackTwentyThree	Ano1	500
TrackTwentyThree	Ano2	455
TrackTwentyThree	Ano3	413
TrackTwentyThree	Ano4	376
TrackTwentyFour	Ano1	375
TrackTwentyFour	Ano2	341
TrackTwentyFour	Ano3	310
TrackTwentyFour	Ano4	282
TrackTwentyFive	Ano1	750
TrackTwentyFive	Ano2	682
TrackTwentyFive	Ano3	620
TrackTwentyFive	Ano4	563 ;


# prod costs are per cm3
param Q := Origin1	Ano1	15
Origin1	Ano2	15
Origin1	Ano3	15
Origin1	Ano4	15
Origin2	Ano1	15
Origin2	Ano2	15
Origin2	Ano3	15
Origin2	Ano4	15
Origin3	Ano1	15
Origin3	Ano2	15
Origin3	Ano3	15
Origin3	Ano4	15
Origin4	Ano1	15
Origin4	Ano2	15
Origin4	Ano3	15
Origin4	Ano4	15
Origin5	Ano1	15
Origin5	Ano2	15
Origin5	Ano3	15
Origin5	Ano4	15
Origin6	Ano1	15
Origin6	Ano2	15
Origin6	Ano3	15
Origin6	Ano4	15
Origin7	Ano1	15
Origin7	Ano2	15
Origin7	Ano3	15
Origin7	Ano4	15
Origin8	Ano1	15
Origin8	Ano2	15
Origin8	Ano3	15
Origin8	Ano4	15
Origin9	Ano1	15
Origin9	Ano2	15
Origin9	Ano3	15
Origin9	Ano4	15 ;

# construction cost of one road in arc (k,l) in time t
param C := Org6Exit1P	Ano1	1550
Org6Exit1P	Ano2	1409
Org6Exit1P	Ano3	1281
Org6Exit1P	Ano4	1165
Org1Org2P	Ano1	900
Org1Org2P	Ano2	818
Org1Org2P	Ano3	744
Org1Org2P	Ano4	676
Int1Int3P	Ano1	1750
Int1Int3P	Ano2	1591
Int1Int3P	Ano3	1446
Int1Int3P	Ano4	1315
Org4Int1P	Ano1	1050
Org4Int1P	Ano2	955
Org4Int1P	Ano3	868
Org4Int1P	Ano4	789
Org9Int2P	Ano1	1200
Org9Int2P	Ano2	1091
Org9Int2P	Ano3	992
Org9Int2P	Ano4	902
Org7Exit1P	Ano1	1750
Org7Exit1P	Ano2	1591
Org7Exit1P	Ano3	1446
Org7Exit1P	Ano4	1315
Org1Int3P	Ano1	1110
Org1Int3P	Ano2	1009
Org1Int3P	Ano3	917
Org1Int3P	Ano4	834
Org2Exit1P	Ano1	2840
Org2Exit1P	Ano2	2582
Org2Exit1P	Ano3	2347
Org2Exit1P	Ano4	2134
Org1Org3P	Ano1	1200
Org1Org3P	Ano2	1091
Org1Org3P	Ano3	992
Org1Org3P	Ano4	902
Org3Int1P	Ano1	900
Org3Int1P	Ano2	818
Org3Int1P	Ano3	744
Org3Int1P	Ano4	676
Org4Org9P	Ano1	1750
Org4Org9P	Ano2	1591
Org4Org9P	Ano3	1446
Org4Org9P	Ano4	1315
Org8Exit1P	Ano1	990
Org8Exit1P	Ano2	900
Org8Exit1P	Ano3	818
Org8Exit1P	Ano4	744
Int1Org5P	Ano1	1050
Int1Org5P	Ano2	955
Int1Org5P	Ano3	868
Int1Org5P	Ano4	789
Int1Exit1P	Ano1	1800
Int1Exit1P	Ano2	1636
Int1Exit1P	Ano3	1488
Int1Exit1P	Ano4	1352 ;


# unit transport cost through arc (k,l) in time t
param D := Org2Int3E 	Ano1	5
Org2Int3E 	Ano2	5
Org2Int3E 	Ano3	5
Org2Int3E 	Ano4	5
Int3Exit1E 	Ano1	15
Int3Exit1E 	Ano2	15
Int3Exit1E 	Ano3	15
Int3Exit1E 	Ano4	15
Int1Int2E	Ano1	17
Int1Int2E	Ano2	17
Int1Int2E	Ano3	17
Int1Int2E	Ano4	17
Int2Exit1E	Ano1	8
Int2Exit1E	Ano2	8
Int2Exit1E	Ano3	8
Int2Exit1E	Ano4	8
Org5Exit1E	Ano1	12
Org5Exit1E	Ano2	12
Org5Exit1E	Ano3	12
Org5Exit1E	Ano4	12
Org6Exit1P	Ano1	12
Org6Exit1P	Ano2	12
Org6Exit1P	Ano3	12
Org6Exit1P	Ano4	12
Org1Org2P	Ano1	5
Org1Org2P	Ano2	5
Org1Org2P	Ano3	5
Org1Org2P	Ano4	5
Int1Int3P	Ano1	14
Int1Int3P	Ano2	14
Int1Int3P	Ano3	14
Int1Int3P	Ano4	14
Org4Int1P	Ano1	8
Org4Int1P	Ano2	8
Org4Int1P	Ano3	8
Org4Int1P	Ano4	8
Org9Int2P	Ano1	8
Org9Int2P	Ano2	8
Org9Int2P	Ano3	8
Org9Int2P	Ano4	8
Org7Exit1P	Ano1	15
Org7Exit1P	Ano2	15
Org7Exit1P	Ano3	15
Org7Exit1P	Ano4	15
Org1Int3P	Ano1	10
Org1Int3P	Ano2	10
Org1Int3P	Ano3	10
Org1Int3P	Ano4	10
Org7Int2E	Ano1	8
Org7Int2E	Ano2	8
Org7Int2E	Ano3	8
Org7Int2E	Ano4	8
Org2Exit1P	Ano1	21
Org2Exit1P	Ano2	21
Org2Exit1P	Ano3	21
Org2Exit1P	Ano4	21
Org1Org3P	Ano1	14
Org1Org3P	Ano2	14
Org1Org3P	Ano3	14
Org1Org3P	Ano4	14
Org3Int1P	Ano1	5
Org3Int1P	Ano2	5
Org3Int1P	Ano3	5
Org3Int1P	Ano4	5
Org4Org9P	Ano1	15
Org4Org9P	Ano2	15
Org4Org9P	Ano3	15
Org4Org9P	Ano4	15
Org8Exit1P	Ano1	5
Org8Exit1P	Ano2	5
Org8Exit1P	Ano3	5
Org8Exit1P	Ano4	5
Int1Org5P	Ano1	10
Int1Org5P	Ano2	10
Int1Org5P	Ano3	10
Int1Org5P	Ano4	10
Int1Exit1P	Ano1	20
Int1Exit1P	Ano2	20
Int1Exit1P	Ano3	20
Int1Exit1P	Ano4	20 ;
			
#
# Stochastic Parameters
#

# sale price at exit s in time period t
param R := Exit1 Ano1 45
           Exit1 Ano2 45 
           Exit1 Ano3 52
           Exit1 Ano4 55 ;

# upper and lower bounds on wood supplied

# now taking zeros off
param Zlb := Ano1 30000
             Ano2 15000
             Ano3 27000
             Ano4 21000 ;
param Zub := Ano1 40000
             Ano2 33000
             Ano3 45000
             Ano4 50000 ;

